p tw 35 37
1 2
2 13
3 4
4 5
5 6
6 7
6 9
7 8
8 28
9 10
10 11
11 12
12 14
13 24
14 15
15 16
16 17
17 18
17 19
18 28
19 20
20 21
21 22
22 23
23 25
24 30
25 26
26 27
27 28
28 29
30 31
31 32
32 33
33 34
33 35
34 28
35 3
